MITM/Example/Solution/Toy_r1_r3_r2.sol
# Objective value = 7
SK_0_r0 1
SK_1_r0 1
SK_2_r0 1
SK_3_r0 0
SK_0_r5 0
SK_1_r5 1
SK_2_r5 0
SK_3_r5 0
SK_0_r6 1
SK_1_r6 0
SK_2_r6 1
SK_3_r6 1
S_0_r_minus1_TypeX 1
S_1_r_minus1_TypeX 1
S_2_r_minus1_TypeX 1
S_3_r_minus1_TypeX 0
S_0_r3_TypeX 1
S_0_r3_TypeZ 0
S_0_r3_TypeY 0
S_1_r3_TypeX 1
S_1_r3_TypeZ 1
S_1_r3_TypeY 1
S_2_r3_TypeX 1
S_2_r3_TypeZ 0
S_2_r3_TypeY 0
S_3_r3_TypeX 1
S_3_r3_TypeZ 0
S_3_r3_TypeY 0
S_0_r0_TypeX 0
S_1_r0_TypeX 0
S_2_r0_TypeX 0
S_3_r0_TypeX 1
S_0_r1_TypeZ 1
S_1_r1_TypeZ 1
S_2_r1_TypeZ 1
S_3_r1_TypeZ 0
S_0_r2_TypeZ 1
S_1_r2_TypeZ 0
S_2_r2_TypeZ 1
S_3_r2_TypeZ 1
V_0_r0_TypeX 0
V_1_r0_TypeX 0
V_2_r0_TypeX 0
V_3_r0_TypeX 1
S_0_r1_TypeX 1
S_1_r1_TypeX 1
S_2_r1_TypeX 1
S_3_r1_TypeX 0
S_0_r0_TypeY 1
V_0_r0_TypeY 1
S_1_r0_TypeY 1
V_1_r0_TypeY 1
S_2_r0_TypeY 1
V_2_r0_TypeY 1
S_3_r0_TypeY 1
V_3_r0_TypeY 1
S_1_r1_TypeY 1
S_2_r1_TypeY 1
S_3_r1_TypeY 1
S_0_r1_TypeY 1
S_0_r0_TypeZ 0
S_1_r0_TypeZ 0
S_2_r0_TypeZ 0
S_3_r0_TypeZ 1
V_0_r0_TypeZ 0
V_1_r0_TypeZ 0
V_2_r0_TypeZ 0
V_3_r0_TypeZ 1
V_0_r1_TypeX 1
V_1_r1_TypeX 1
V_2_r1_TypeX 1
V_3_r1_TypeX 0
S_0_r2_TypeX 1
S_1_r2_TypeX 1
S_2_r2_TypeX 1
S_3_r2_TypeX 1
V_0_r1_TypeY 1
V_1_r1_TypeY 1
V_2_r1_TypeY 1
V_3_r1_TypeY 1
S_1_r2_TypeY 0
S_2_r2_TypeY 1
S_3_r2_TypeY 1
S_0_r2_TypeY 1
V_0_r1_TypeZ 1
V_1_r1_TypeZ 1
V_2_r1_TypeZ 1
V_3_r1_TypeZ 0
V_0_r2_TypeX 1
V_1_r2_TypeX 1
V_2_r2_TypeX 1
V_3_r2_TypeX 1
V_0_r2_TypeY 1
V_1_r2_TypeY 0
V_2_r2_TypeY 1
V_3_r2_TypeY 1
V_0_r2_TypeZ 1
V_1_r2_TypeZ 0
V_2_r2_TypeZ 1
V_3_r2_TypeZ 1
V_0_r_minus1_TypeX 1
V_1_r_minus1_TypeX 1
V_2_r_minus1_TypeX 1
V_3_r_minus1_TypeX 0
V_0_r_minus1_TypeZ 1
V_1_r_minus1_TypeZ 1
V_2_r_minus1_TypeZ 1
V_3_r_minus1_TypeZ 0
S_0_r_minus1_TypeZ 1
S_1_r_minus1_TypeZ 1
S_2_r_minus1_TypeZ 1
S_3_r_minus1_TypeZ 0
V_0_r3_TypeY 0
V_1_r3_TypeY 1
V_2_r3_TypeY 0
V_3_r3_TypeY 0
S_0_r4_TypeY 1
S_1_r4_TypeY 0
S_2_r4_TypeY 1
S_3_r4_TypeY 1
V_0_r3_TypeZ 0
V_1_r3_TypeZ 1
V_2_r3_TypeZ 0
V_3_r3_TypeZ 0
V_0_r4_TypeY 1
V_1_r4_TypeY 0
V_2_r4_TypeY 1
V_3_r4_TypeY 1
S_0_r5_TypeY 1
S_1_r5_TypeY 1
S_2_r5_TypeY 1
S_3_r5_TypeY 1
V_0_r4_TypeZ 1
V_1_r4_TypeZ 0
V_2_r4_TypeZ 1
V_3_r4_TypeZ 1
S_0_r4_TypeZ 1
S_1_r4_TypeZ 0
S_2_r4_TypeZ 1
S_3_r4_TypeZ 1
